\ENCODING=ISO-8859-1
\Problem name: ilog.cplex

Minimize
 obj1: - 0.144549646730732 x(0,0,0,1) - 0.597811490926634 x(0,0,0,2)
       - 0.00696486678999316 x(1,0,0,2) - 1.43691432963877 x(0,0,0,3)
       - 0.0448547914873423 x(1,0,0,3) - 1.63863369444231 x(0,0,0,4)
       - 0.148301354152254 x(1,0,0,4) + 200 z(0,1) + 200 z(0,2) + 200 z(0,3)
       + 200 z(0,4) + 200 z(0,0) + 10 YY(0,0,0) + 10 YY(1,0,0)
       + [ 0.5 x(0,0,0,0) ^2 + 0.5 x(0,0,0,1) ^2 + 0.5 x(1,0,0,0) ^2
       + 0.5 x(1,0,0,1) ^2 + 0.5 x(0,0,0,2) ^2 + 0.5 x(1,0,0,2) ^2
       + 0.5 x(0,0,0,3) ^2 + 0.5 x(1,0,0,3) ^2 + 0.5 x(0,0,0,4) ^2
       + 0.5 x(1,0,0,4) ^2 ] / 2 + 0.141220863269965
Subject To
 b_0000:   x(0,0,0,0) - x(0,0,0,1) <= 0
 b_1000:   x(1,0,0,0) - x(1,0,0,1) <= 0
 b_0001:   x(0,0,0,1) - x(0,0,0,2) <= 0
 b_1001:   x(1,0,0,1) - x(1,0,0,2) <= 0
 b_0002:   x(0,0,0,2) - x(0,0,0,3) <= 0
 b_1002:   x(1,0,0,2) - x(1,0,0,3) <= 0
 b_0003:   x(0,0,0,3) - x(0,0,0,4) <= 0
 b_1003:   x(1,0,0,3) - x(1,0,0,4) <= 0
 c_0000:   - x(0,0,0,0) + x(1,0,0,1) <= 0
 c_0001:   - x(0,0,0,1) + x(1,0,0,2) <= 0
 c_0002:   - x(0,0,0,2) + x(1,0,0,3) <= 0
 c_0003:   - x(0,0,0,3) + x(1,0,0,4) <= 0
 d_01:     - x(0,0,0,0) + x(0,0,0,1) - x(1,0,0,0) + x(1,0,0,1) - z(0,1) <= 0
 d_02:     - x(0,0,0,1) - x(1,0,0,1) + x(0,0,0,2) + x(1,0,0,2) - z(0,2) <= 0
 d_03:     - x(0,0,0,2) - x(1,0,0,2) + x(0,0,0,3) + x(1,0,0,3) - z(0,3) <= 0
 d_04:     - x(0,0,0,3) - x(1,0,0,3) + x(0,0,0,4) + x(1,0,0,4) - z(0,4) <= 0
 a_e_0000: x(0,0,0,0) - z(0,0) <= 0
 h_1000:   x(1,0,0,0)  = 0
 i_00:     - x(0,0,0,0) + x(0)  = 0
 j_0:      x(0) >= 0
 k_000:    YY(0,0,0) + w(0,0,0,5)  = 1
 l_100:    YY(1,0,0) - 0.5 u(1,0,0,5) - 0.5 v(1,0,0,5) - 0.5 u(1,0,0,6)
           - 0.5 v(1,0,0,6) - 0.5 u(1,0,0,7) - 0.5 v(1,0,0,7) - 0.5 u(1,0,0,8)
           - 0.5 v(1,0,0,8) - 0.5 u(1,0,0,9) - 0.5 v(1,0,0,9) - 0.5 w(1,0,0,4)
           - 0.5 w(1,0,0,3) - 0.5 w(1,0,0,2) - 0.5 w(1,0,0,1) - 0.5 w(1,0,0,0)
            = 0
 m_1005:   y(1,0,0,5) - w(1,0,0,5) + w(0,0,0,0)  = 0
 m_1009:   y(1,0,0,9) - w(1,0,0,9) + w(0,0,0,4)  = 0
 n_0001:   x(0,0,0,0) - x(0,0,0,1) + w(0,0,0,1)  = 0
 n_1001:   x(1,0,0,0) - x(1,0,0,1) + w(1,0,0,1)  = 0
 n_0002:   x(0,0,0,1) - x(0,0,0,2) + w(0,0,0,2)  = 0
 n_1002:   x(1,0,0,1) - x(1,0,0,2) + w(1,0,0,2)  = 0
 n_0003:   x(0,0,0,2) - x(0,0,0,3) + w(0,0,0,3)  = 0
 n_1003:   x(1,0,0,2) - x(1,0,0,3) + w(1,0,0,3)  = 0
 n_0004:   x(0,0,0,3) - x(0,0,0,4) + w(0,0,0,4)  = 0
 n_1004:   x(1,0,0,3) - x(1,0,0,4) + w(1,0,0,4)  = 0
 o_0000:   - x(0,0,0,0) + w(0,0,0,0)  = 0
 o_1000:   - x(1,0,0,0) + w(1,0,0,0)  = 0
 p_0005:   w(0,0,0,5)  = 0
 p_0006:   w(0,0,0,6)  = 0
 p_0007:   w(0,0,0,7)  = 0
 p_0008:   w(0,0,0,8)  = 0
 p_0009:   w(0,0,0,9)  = 0
 p_1005:   w(1,0,0,5)  = 0
 p_1006:   w(1,0,0,6)  = 0
 p_1007:   w(1,0,0,7)  = 0
 p_1008:   w(1,0,0,8)  = 0
 p_1009:   w(1,0,0,9)  = 0
 r_0000:   y(0,0,0,0) - u(0,0,0,0) + v(0,0,0,0)  = 0
 s_0000:   u(0,0,0,0) + v(0,0,0,0) <= 1
 r_1000:   y(1,0,0,0) - u(1,0,0,0) + v(1,0,0,0)  = 0
 s_1000:   u(1,0,0,0) + v(1,0,0,0) <= 1
 r_0001:   y(0,0,0,1) - u(0,0,0,1) + v(0,0,0,1)  = 0
 s_0001:   u(0,0,0,1) + v(0,0,0,1) <= 1
 r_1001:   y(1,0,0,1) - u(1,0,0,1) + v(1,0,0,1)  = 0
 s_1001:   u(1,0,0,1) + v(1,0,0,1) <= 1
 r_0002:   y(0,0,0,2) - u(0,0,0,2) + v(0,0,0,2)  = 0
 s_0002:   u(0,0,0,2) + v(0,0,0,2) <= 1
 r_1002:   y(1,0,0,2) - u(1,0,0,2) + v(1,0,0,2)  = 0
 s_1002:   u(1,0,0,2) + v(1,0,0,2) <= 1
 r_0003:   y(0,0,0,3) - u(0,0,0,3) + v(0,0,0,3)  = 0
 s_0003:   u(0,0,0,3) + v(0,0,0,3) <= 1
 r_1003:   y(1,0,0,3) - u(1,0,0,3) + v(1,0,0,3)  = 0
 s_1003:   u(1,0,0,3) + v(1,0,0,3) <= 1
 r_0004:   y(0,0,0,4) - u(0,0,0,4) + v(0,0,0,4)  = 0
 s_0004:   u(0,0,0,4) + v(0,0,0,4) <= 1
 r_1004:   y(1,0,0,4) - u(1,0,0,4) + v(1,0,0,4)  = 0
 s_1004:   u(1,0,0,4) + v(1,0,0,4) <= 1
 r_0005:   y(0,0,0,5) - u(0,0,0,5) + v(0,0,0,5)  = 0
 s_0005:   u(0,0,0,5) + v(0,0,0,5) <= 1
 r_1005:   - u(1,0,0,5) + v(1,0,0,5) + y(1,0,0,5)  = 0
 s_1005:   u(1,0,0,5) + v(1,0,0,5) <= 1
 r_0006:   y(0,0,0,6) - u(0,0,0,6) + v(0,0,0,6)  = 0
 s_0006:   u(0,0,0,6) + v(0,0,0,6) <= 1
 r_1006:   - u(1,0,0,6) + v(1,0,0,6) + y(1,0,0,6)  = 0
 s_1006:   u(1,0,0,6) + v(1,0,0,6) <= 1
 r_0007:   y(0,0,0,7) - u(0,0,0,7) + v(0,0,0,7)  = 0
 s_0007:   u(0,0,0,7) + v(0,0,0,7) <= 1
 r_1007:   - u(1,0,0,7) + v(1,0,0,7) + y(1,0,0,7)  = 0
 s_1007:   u(1,0,0,7) + v(1,0,0,7) <= 1
 r_0008:   y(0,0,0,8) - u(0,0,0,8) + v(0,0,0,8)  = 0
 s_0008:   u(0,0,0,8) + v(0,0,0,8) <= 1
 r_1008:   - u(1,0,0,8) + v(1,0,0,8) + y(1,0,0,8)  = 0
 s_1008:   u(1,0,0,8) + v(1,0,0,8) <= 1
 r_0009:   y(0,0,0,9) - u(0,0,0,9) + v(0,0,0,9)  = 0
 s_0009:   u(0,0,0,9) + v(0,0,0,9) <= 1
 r_1009:   - u(1,0,0,9) + v(1,0,0,9) + y(1,0,0,9)  = 0
 s_1009:   u(1,0,0,9) + v(1,0,0,9) <= 1
Bounds
 0 <= x(0,0,0,0) <= 1
 0 <= x(0,0,0,1) <= 1
 0 <= x(1,0,0,0) <= 1
 0 <= x(1,0,0,1) <= 1
 0 <= x(0,0,0,2) <= 1
 0 <= x(1,0,0,2) <= 1
 0 <= x(0,0,0,3) <= 1
 0 <= x(1,0,0,3) <= 1
 0 <= x(0,0,0,4) <= 1
 0 <= x(1,0,0,4) <= 1
 0 <= z(0,1) <= 1
 0 <= z(0,2) <= 1
 0 <= z(0,3) <= 1
 0 <= z(0,4) <= 1
 0 <= z(0,0) <= 1
 0 <= x(0) <= 1
 0 <= YY(0,0,0) <= 1
 0 <= w(0,0,0,5) <= 1
 0 <= YY(1,0,0) <= 1
 0 <= u(1,0,0,5) <= 1
 0 <= v(1,0,0,5) <= 1
 0 <= u(1,0,0,6) <= 1
 0 <= v(1,0,0,6) <= 1
 0 <= u(1,0,0,7) <= 1
 0 <= v(1,0,0,7) <= 1
 0 <= u(1,0,0,8) <= 1
 0 <= v(1,0,0,8) <= 1
 0 <= u(1,0,0,9) <= 1
 0 <= v(1,0,0,9) <= 1
 0 <= w(1,0,0,4) <= 1
 0 <= w(1,0,0,3) <= 1
 0 <= w(1,0,0,2) <= 1
 0 <= w(1,0,0,1) <= 1
 0 <= w(1,0,0,0) <= 1
 0 <= y(1,0,0,5) <= 1
 0 <= w(1,0,0,5) <= 1
 0 <= w(0,0,0,0) <= 1
 0 <= y(1,0,0,9) <= 1
 0 <= w(1,0,0,9) <= 1
 0 <= w(0,0,0,4) <= 1
 0 <= w(0,0,0,1) <= 1
 0 <= w(0,0,0,2) <= 1
 0 <= w(0,0,0,3) <= 1
 0 <= w(0,0,0,6) <= 1
 0 <= w(0,0,0,7) <= 1
 0 <= w(0,0,0,8) <= 1
 0 <= w(0,0,0,9) <= 1
 0 <= w(1,0,0,6) <= 1
 0 <= w(1,0,0,7) <= 1
 0 <= w(1,0,0,8) <= 1
 0 <= y(0,0,0,0) <= 1
 0 <= u(0,0,0,0) <= 1
 0 <= v(0,0,0,0) <= 1
 0 <= y(1,0,0,0) <= 1
 0 <= u(1,0,0,0) <= 1
 0 <= v(1,0,0,0) <= 1
 0 <= y(0,0,0,1) <= 1
 0 <= u(0,0,0,1) <= 1
 0 <= v(0,0,0,1) <= 1
 0 <= y(1,0,0,1) <= 1
 0 <= u(1,0,0,1) <= 1
 0 <= v(1,0,0,1) <= 1
 0 <= y(0,0,0,2) <= 1
 0 <= u(0,0,0,2) <= 1
 0 <= v(0,0,0,2) <= 1
 0 <= y(1,0,0,2) <= 1
 0 <= u(1,0,0,2) <= 1
 0 <= v(1,0,0,2) <= 1
 0 <= y(0,0,0,3) <= 1
 0 <= u(0,0,0,3) <= 1
 0 <= v(0,0,0,3) <= 1
 0 <= y(1,0,0,3) <= 1
 0 <= u(1,0,0,3) <= 1
 0 <= v(1,0,0,3) <= 1
 0 <= y(0,0,0,4) <= 1
 0 <= u(0,0,0,4) <= 1
 0 <= v(0,0,0,4) <= 1
 0 <= y(1,0,0,4) <= 1
 0 <= u(1,0,0,4) <= 1
 0 <= v(1,0,0,4) <= 1
 0 <= y(0,0,0,5) <= 1
 0 <= u(0,0,0,5) <= 1
 0 <= v(0,0,0,5) <= 1
 0 <= y(0,0,0,6) <= 1
 0 <= u(0,0,0,6) <= 1
 0 <= v(0,0,0,6) <= 1
 0 <= y(1,0,0,6) <= 1
 0 <= y(0,0,0,7) <= 1
 0 <= u(0,0,0,7) <= 1
 0 <= v(0,0,0,7) <= 1
 0 <= y(1,0,0,7) <= 1
 0 <= y(0,0,0,8) <= 1
 0 <= u(0,0,0,8) <= 1
 0 <= v(0,0,0,8) <= 1
 0 <= y(1,0,0,8) <= 1
 0 <= y(0,0,0,9) <= 1
 0 <= u(0,0,0,9) <= 1
 0 <= v(0,0,0,9) <= 1
Binaries
 x(0,0,0,0)  x(0,0,0,1)  x(1,0,0,0)  x(1,0,0,1)  x(0,0,0,2)  x(1,0,0,2) 
 x(0,0,0,3)  x(1,0,0,3)  x(0,0,0,4)  x(1,0,0,4)  z(0,1)  z(0,2)  z(0,3) 
 z(0,4)  z(0,0)  x(0)  YY(0,0,0)  w(0,0,0,5)  YY(1,0,0)  u(1,0,0,5) 
 v(1,0,0,5)  u(1,0,0,6)  v(1,0,0,6)  u(1,0,0,7)  v(1,0,0,7)  u(1,0,0,8) 
 v(1,0,0,8)  u(1,0,0,9)  v(1,0,0,9)  w(1,0,0,4)  w(1,0,0,3)  w(1,0,0,2) 
 w(1,0,0,1)  w(1,0,0,0)  y(1,0,0,5)  w(1,0,0,5)  w(0,0,0,0)  y(1,0,0,9) 
 w(1,0,0,9)  w(0,0,0,4)  w(0,0,0,1)  w(0,0,0,2)  w(0,0,0,3)  w(0,0,0,6) 
 w(0,0,0,7)  w(0,0,0,8)  w(0,0,0,9)  w(1,0,0,6)  w(1,0,0,7)  w(1,0,0,8) 
 y(0,0,0,0)  u(0,0,0,0)  v(0,0,0,0)  y(1,0,0,0)  u(1,0,0,0)  v(1,0,0,0) 
 y(0,0,0,1)  u(0,0,0,1)  v(0,0,0,1)  y(1,0,0,1)  u(1,0,0,1)  v(1,0,0,1) 
 y(0,0,0,2)  u(0,0,0,2)  v(0,0,0,2)  y(1,0,0,2)  u(1,0,0,2)  v(1,0,0,2) 
 y(0,0,0,3)  u(0,0,0,3)  v(0,0,0,3)  y(1,0,0,3)  u(1,0,0,3)  v(1,0,0,3) 
 y(0,0,0,4)  u(0,0,0,4)  v(0,0,0,4)  y(1,0,0,4)  u(1,0,0,4)  v(1,0,0,4) 
 y(0,0,0,5)  u(0,0,0,5)  v(0,0,0,5)  y(0,0,0,6)  u(0,0,0,6)  v(0,0,0,6) 
 y(1,0,0,6)  y(0,0,0,7)  u(0,0,0,7)  v(0,0,0,7)  y(1,0,0,7)  y(0,0,0,8) 
 u(0,0,0,8)  v(0,0,0,8)  y(1,0,0,8)  y(0,0,0,9)  u(0,0,0,9)  v(0,0,0,9) 
End
